
n_res = 4;
rcap = [49, 49, 273, 262];
rtype = [1, 1, 2, 2];
n_tasks = 50;
modes =  [{1, 2, 3}, {4, 5, 6}, {7, 8, 9}, {10, 11, 12}, {13, 14, 15}, {16, 17, 18}, {19, 20, 21}, {22, 23, 24}, {25, 26, 27}, {28, 29, 30}, {31, 32, 33}, {34, 35, 36}, {37, 38, 39}, {40, 41, 42}, {43, 44, 45}, {46, 47, 48}, {49, 50, 51}, {52, 53, 54}, {55, 56, 57}, {58, 59, 60}, {61, 62, 63}, {64, 65, 66}, {67, 68, 69}, {70, 71, 72}, {73, 74, 75}, {76, 77, 78}, {79, 80, 81}, {82, 83, 84}, {85, 86, 87}, {88, 89, 90}, {91, 92, 93}, {94, 95, 96}, {97, 98, 99}, {100, 101, 102}, {103, 104, 105}, {106, 107, 108}, {109, 110, 111}, {112, 113, 114}, {115, 116, 117}, {118, 119, 120}, {121, 122, 123}, {124, 125, 126}, {127, 128, 129}, {130, 131, 132}, {133, 134, 135}, {136, 137, 138}, {139, 140, 141}, {142, 143, 144}, {145, 146, 147}, {148, 149, 150}];
succ =  [{31, 29, 27, 25, 23, 21, 18, 17, 11}, {31, 27, 23, 21, 18, 11}, {34, 29, 26, 25, 23, 19, 15}, {34, 31, 26, 25, 23, 19, 15}, {28, 8}, {36, 31, 29, 27, 20, 17}, {36, 35, 34, 29, 26, 22, 21, 19}, {36, 34, 31, 27, 26, 23, 20}, {34, 31, 29, 20, 17}, {42, 34, 20, 13}, {42, 26, 15}, {42, 34, 15}, {36, 35, 31, 28, 26, 22}, {35, 34, 26, 23, 22}, {36, 28, 20}, {50, 49, 42, 41, 40, 38, 35, 32, 28, 27}, {49, 48, 42, 38, 35, 33, 28, 26}, {49, 48, 41, 40, 38, 35, 34, 33, 32, 30, 28}, {50, 49, 42, 41, 40, 38, 32, 30, 27}, {50, 41, 35, 33, 22}, {50, 47, 42, 40, 39, 38, 37, 30}, {49, 48, 40, 39, 38, 32, 30}, {50, 49, 48, 42, 41, 40, 32}, {49, 48, 47, 42, 39, 38, 33}, {48, 42, 35, 33, 28}, {50, 47, 41, 40, 32}, {48, 47, 39, 33}, {47, 46, 39, 37}, {48, 44, 43, 41}, {46, 45, 44, 43}, {47, 43, 39}, {46, 37}, {46, 37}, {47, 37}, {47, 45, 43}, {37}, {44, 43}, {44, 43}, {45}, {43}, {45}, {43}, {}, {}, {}, {}, {}, {}, {}, {}];
n_opt = 150;
dur = [1, 7, 9, 4, 9, 10, 4, 5, 6, 3, 4, 9, 4, 8, 10, 6, 7, 10, 1, 4, 7, 1, 4, 8, 1, 4, 8, 2, 7, 8, 6, 8, 10, 1, 2, 9, 2, 4, 5, 2, 6, 8, 7, 9, 10, 4, 6, 9, 2, 5, 8, 1, 5, 7, 4, 9, 10, 4, 5, 6, 3, 8, 9, 3, 4, 9, 1, 2, 5, 4, 8, 9, 4, 5, 6, 3, 6, 9, 3, 4, 8, 2, 6, 7, 4, 5, 10, 2, 3, 5, 4, 7, 10, 5, 6, 8, 4, 6, 7, 6, 7, 8, 5, 6, 8, 1, 4, 9, 1, 2, 7, 1, 4, 5, 1, 2, 4, 1, 2, 10, 6, 7, 10, 2, 9, 10, 1, 4, 5, 1, 6, 7, 6, 9, 10, 1, 2, 10, 2, 6, 7, 2, 7, 8, 6, 8, 9, 1, 2, 7];
rreq = [|9, 8, 6, 9, 8, 7, 7, 6, 3, 5, 4, 2, 6, 2, 2, 6, 5, 5, 6, 6, 6, 8, 4, 2, 6, 3, 3, 10, 6, 2, 9, 8, 8, 8, 6, 6, 7, 4, 2, 4, 4, 4, 6, 6, 6, 6, 6, 5, 3, 3, 2, 8, 6, 3, 7, 6, 4, 7, 7, 7, 8, 8, 8, 3, 2, 1, 6, 6, 4, 7, 6, 5, 4, 2, 1, 6, 5, 5, 7, 6, 5, 7, 3, 2, 9, 7, 5, 3, 3, 3, 9, 8, 7, 6, 5, 5, 6, 5, 3, 9, 5, 3, 2, 2, 2, 4, 2, 1, 3, 2, 1, 8, 6, 6, 7, 7, 6, 5, 4, 2, 9, 9, 9, 7, 6, 5, 9, 9, 8, 4, 3, 3, 10, 4, 3, 5, 3, 2, 6, 5, 4, 7, 7, 7, 8, 4, 3, 10, 9, 8
 |8, 7, 7, 8, 4, 1, 5, 5, 3, 9, 8, 7, 9, 8, 6, 2, 2, 2, 10, 9, 9, 8, 8, 7, 9, 5, 1, 3, 2, 1, 8, 8, 6, 6, 4, 2, 6, 5, 2, 7, 7, 6, 6, 6, 6, 7, 5, 4, 7, 6, 4, 10, 8, 8, 8, 5, 3, 5, 5, 4, 8, 6, 4, 4, 3, 3, 7, 4, 2, 5, 3, 3, 5, 4, 2, 4, 3, 2, 1, 1, 1, 10, 9, 9, 10, 6, 5, 6, 5, 3, 5, 3, 2, 7, 5, 4, 8, 7, 7, 7, 5, 3, 2, 1, 1, 4, 3, 2, 3, 3, 3, 7, 7, 5, 9, 8, 7, 8, 5, 4, 9, 7, 7, 5, 4, 3, 8, 7, 5, 6, 6, 4, 10, 6, 5, 5, 4, 4, 6, 5, 4, 6, 5, 4, 6, 6, 6, 4, 2, 2
 |7, 5, 4, 8, 4, 4, 10, 7, 3, 9, 8, 7, 9, 8, 7, 7, 6, 5, 8, 8, 6, 6, 6, 6, 9, 7, 7, 6, 5, 5, 7, 5, 5, 1, 1, 1, 7, 6, 6, 8, 8, 8, 5, 3, 2, 9, 8, 6, 5, 2, 2, 7, 5, 3, 7, 7, 6, 6, 6, 3, 8, 7, 5, 8, 7, 7, 9, 9, 9, 5, 3, 3, 4, 4, 4, 5, 5, 5, 4, 4, 2, 7, 7, 5, 8, 5, 5, 4, 4, 4, 8, 8, 5, 4, 3, 3, 5, 5, 5, 1, 1, 1, 4, 3, 3, 7, 7, 4, 9, 9, 9, 9, 7, 7, 7, 5, 5, 5, 5, 5, 4, 4, 3, 8, 5, 3, 3, 3, 2, 8, 8, 7, 7, 5, 3, 6, 4, 2, 7, 5, 5, 5, 5, 1, 4, 3, 2, 7, 6, 6
 |6, 6, 6, 8, 8, 8, 7, 6, 5, 7, 5, 5, 3, 3, 2, 5, 3, 2, 7, 7, 5, 8, 6, 2, 2, 1, 1, 10, 7, 4, 5, 4, 4, 9, 6, 6, 8, 4, 3, 8, 7, 7, 9, 9, 9, 9, 8, 8, 5, 4, 4, 1, 1, 1, 4, 4, 3, 10, 7, 5, 6, 3, 3, 3, 3, 2, 8, 8, 6, 8, 7, 7, 2, 2, 1, 7, 4, 1, 4, 3, 2, 6, 6, 5, 9, 7, 5, 8, 6, 6, 5, 4, 3, 3, 2, 2, 3, 3, 3, 5, 3, 3, 10, 8, 7, 6, 6, 6, 4, 4, 4, 6, 5, 4, 10, 7, 3, 5, 5, 3, 4, 4, 2, 5, 4, 4, 7, 7, 7, 5, 4, 2, 8, 5, 5, 6, 6, 5, 9, 8, 6, 7, 6, 4, 7, 4, 3, 8, 7, 6|];